(set-logic QF_SLIA)
(declare-const result String)
(declare-const attack String)
(declare-const prefix RegLan)
(declare-const infix RegLan)
(declare-const postfix RegLan)
(declare-const postfixs String)

(assert (str.in_re attack (re.++ prefix ((_ re.loop 5000 5000) infix) postfix)))
(assert (= prefix 
     (re.++  (re.++  (re.union  (re.++  (str.to_re "\x62") (re.++  (str.to_re "\x69") (re.++  (str.to_re "\x6e") (re.++  (str.to_re "\x67") (re.++  (str.to_re "\x62") (re.++  (str.to_re "\x6f")  (str.to_re "\x74"))))))) (re.union  (re.++  (str.to_re "\x42") (re.++  (str.to_re "\x6f") (re.++  (str.to_re "\x6c")  (str.to_re "\x74")))) (re.union  (re.++  (str.to_re "\x4a") (re.++  (str.to_re "\x61") (re.++  (str.to_re "\x73") (re.++  (str.to_re "\x6d") (re.++  (str.to_re "\x69") (re.++  (str.to_re "\x6e")  (str.to_re "\x65"))))))) (re.union  (re.++  (str.to_re "\x49") (re.++  (str.to_re "\x63") (re.++  (str.to_re "\x65") (re.++  (str.to_re "\x43") (re.++  (str.to_re "\x61")  (str.to_re "\x74")))))) (re.union  (re.++  (str.to_re "\x53") (re.++  (str.to_re "\x6b") (re.++  (str.to_re "\x79") (re.++  (str.to_re "\x66") (re.++  (str.to_re "\x69") (re.++  (str.to_re "\x72")  (str.to_re "\x65"))))))) (re.union  (re.++  (str.to_re "\x4d") (re.++  (str.to_re "\x69") (re.++  (str.to_re "\x64") (re.++  (str.to_re "\x6f") (re.++  (str.to_re "\x72")  (str.to_re "\x69")))))) (re.union  (re.++  (str.to_re "\x4d") (re.++  (str.to_re "\x61") (re.++  (str.to_re "\x78") (re.++  (str.to_re "\x74") (re.++  (str.to_re "\x68") (re.++  (str.to_re "\x6f")  (str.to_re "\x6e"))))))) (re.union  (re.++  (str.to_re "\x4c") (re.++  (str.to_re "\x79") (re.++  (str.to_re "\x6e")  (str.to_re "\x78")))) (re.union  (re.++  (str.to_re "\x41") (re.++  (str.to_re "\x72") (re.++  (str.to_re "\x6f") (re.++  (str.to_re "\x72")  (str.to_re "\x61"))))) (re.union  (re.++  (str.to_re "\x49") (re.++  (str.to_re "\x42") (re.++  (str.to_re "\x72") (re.++  (str.to_re "\x6f") (re.++  (str.to_re "\x77") (re.++  (str.to_re "\x73")  (str.to_re "\x65"))))))) (re.union  (re.++  (str.to_re "\x44") (re.++  (str.to_re "\x69") (re.++  (str.to_re "\x6c") (re.++  (str.to_re "\x6c")  (str.to_re "\x6f"))))) (re.union  (re.++  (str.to_re "\x43") (re.++  (str.to_re "\x61") (re.++  (str.to_re "\x6d") (re.++  (str.to_re "\x69") (re.++  (str.to_re "\x6e")  (str.to_re "\x6f")))))) (re.union  (re.++  (str.to_re "\x53") (re.++  (str.to_re "\x68") (re.++  (str.to_re "\x69") (re.++  (str.to_re "\x69") (re.++  (str.to_re "\x72")  (str.to_re "\x61")))))) (re.union  (re.++  (str.to_re "\x46") (re.++  (str.to_re "\x65") (re.++  (str.to_re "\x6e") (re.++  (str.to_re "\x6e") (re.++  (str.to_re "\x65")  (str.to_re "\x63")))))) (re.union  (re.++  (str.to_re "\x50") (re.++  (str.to_re "\x68") (re.++  (str.to_re "\x6f") (re.++  (str.to_re "\x65") (re.++  (str.to_re "\x6e") (re.++  (str.to_re "\x69")  (str.to_re "\x78"))))))) (re.union  (re.++  (str.to_re "\x43") (re.++  (str.to_re "\x68") (re.++  (str.to_re "\x72") (re.++  (str.to_re "\x6f") (re.++  (str.to_re "\x6d")  (str.to_re "\x65")))))) (re.union  (re.++  (str.to_re "\x46") (re.++  (str.to_re "\x6c") (re.++  (str.to_re "\x6f") (re.++  (str.to_re "\x63")  (str.to_re "\x6b"))))) (re.union  (re.++  (str.to_re "\x4e") (re.++  (str.to_re "\x65") (re.++  (str.to_re "\x74") (re.++  (str.to_re "\x73") (re.++  (str.to_re "\x63") (re.++  (str.to_re "\x61") (re.++  (str.to_re "\x70")  (str.to_re "\x65")))))))) (re.union  (re.++  (str.to_re "\x4c") (re.++  (str.to_re "\x75") (re.++  (str.to_re "\x6e") (re.++  (str.to_re "\x61") (re.++  (str.to_re "\x73") (re.++  (str.to_re "\x63") (re.++  (str.to_re "\x61") (re.++  (str.to_re "\x70")  (str.to_re "\x65"))))))))) (re.union  (re.++  (str.to_re "\x45") (re.++  (str.to_re "\x70") (re.++  (str.to_re "\x69") (re.++  (str.to_re "\x70") (re.++  (str.to_re "\x68") (re.++  (str.to_re "\x61") (re.++  (str.to_re "\x6e")  (str.to_re "\x79")))))))) (re.union  (re.++  (str.to_re "\x57") (re.++  (str.to_re "\x65") (re.++  (str.to_re "\x62") (re.++  (str.to_re "\x50") (re.++  (str.to_re "\x69") (re.++  (str.to_re "\x6c") (re.++  (str.to_re "\x6f")  (str.to_re "\x74")))))))) (re.union  (re.++  (str.to_re "\x4f") (re.++  (str.to_re "\x70") (re.++  (str.to_re "\x65") (re.++  (str.to_re "\x72") (re.++  (str.to_re "\x61") (re.++  (str.to_re "\x20") (re.++  (str.to_re "\x4d") (re.++  (str.to_re "\x69") (re.++  (str.to_re "\x6e")  (str.to_re "\x69")))))))))) (re.union  (re.++  (str.to_re "\x4f") (re.++  (str.to_re "\x70") (re.++  (str.to_re "\x65") (re.++  (str.to_re "\x72")  (str.to_re "\x61"))))) (re.union  (re.++  (str.to_re "\x4e") (re.++  (str.to_re "\x65") (re.++  (str.to_re "\x74") (re.++  (str.to_re "\x46") (re.++  (str.to_re "\x72") (re.++  (str.to_re "\x6f") (re.++  (str.to_re "\x6e")  (str.to_re "\x74")))))))) (re.union  (re.++  (str.to_re "\x4e") (re.++  (str.to_re "\x65") (re.++  (str.to_re "\x74") (re.++  (str.to_re "\x66") (re.++  (str.to_re "\x72") (re.++  (str.to_re "\x6f") (re.++  (str.to_re "\x6e")  (str.to_re "\x74")))))))) (re.union  (re.++  (str.to_re "\x4b") (re.++  (str.to_re "\x6f") (re.++  (str.to_re "\x6e") (re.++  (str.to_re "\x71") (re.++  (str.to_re "\x75") (re.++  (str.to_re "\x65") (re.++  (str.to_re "\x72") (re.++  (str.to_re "\x6f")  (str.to_re "\x72"))))))))) (re.union  (re.++  (str.to_re "\x47") (re.++  (str.to_re "\x6f") (re.++  (str.to_re "\x6f") (re.++  (str.to_re "\x67") (re.++  (str.to_re "\x6c") (re.++  (str.to_re "\x65") (re.++  (str.to_re "\x62") (re.++  (str.to_re "\x6f")  (str.to_re "\x74"))))))))) (re.union  (re.++  (str.to_re "\x53") (re.++  (str.to_re "\x65") (re.++  (str.to_re "\x61") (re.++  (str.to_re "\x4d") (re.++  (str.to_re "\x6f") (re.++  (str.to_re "\x6e") (re.++  (str.to_re "\x6b") (re.++  (str.to_re "\x65")  (str.to_re "\x79"))))))))) (re.union  (re.++  (str.to_re "\x4b") (re.++  (str.to_re "\x61") (re.++  (str.to_re "\x7a") (re.++  (str.to_re "\x65") (re.++  (str.to_re "\x68") (re.++  (str.to_re "\x61") (re.++  (str.to_re "\x6b") (re.++  (str.to_re "\x61") (re.++  (str.to_re "\x73")  (str.to_re "\x65")))))))))) (re.union  (re.++  (str.to_re "\x56") (re.++  (str.to_re "\x69") (re.++  (str.to_re "\x65") (re.++  (str.to_re "\x6e") (re.++  (str.to_re "\x6e")  (str.to_re "\x61")))))) (re.union  (re.++  (str.to_re "\x49") (re.++  (str.to_re "\x63") (re.++  (str.to_re "\x65") (re.++  (str.to_re "\x61") (re.++  (str.to_re "\x70")  (str.to_re "\x65")))))) (re.union  (re.++  (str.to_re "\x49") (re.++  (str.to_re "\x63") (re.++  (str.to_re "\x65") (re.++  (str.to_re "\x77") (re.++  (str.to_re "\x65") (re.++  (str.to_re "\x61") (re.++  (str.to_re "\x73") (re.++  (str.to_re "\x65")  (str.to_re "\x6c"))))))))) (re.union  (re.++  (str.to_re "\x49") (re.++  (str.to_re "\x63") (re.++  (str.to_re "\x65") (re.++  (str.to_re "\x57") (re.++  (str.to_re "\x65") (re.++  (str.to_re "\x61") (re.++  (str.to_re "\x73") (re.++  (str.to_re "\x65")  (str.to_re "\x6c"))))))))) (re.union  (re.++  (str.to_re "\x49") (re.++  (str.to_re "\x72") (re.++  (str.to_re "\x6f")  (str.to_re "\x6e")))) (re.union  (re.++  (str.to_re "\x4b") (re.++  (str.to_re "\x2d") (re.++  (str.to_re "\x4d") (re.++  (str.to_re "\x65") (re.++  (str.to_re "\x6c") (re.++  (str.to_re "\x65") (re.++  (str.to_re "\x6f")  (str.to_re "\x6e")))))))) (re.union  (re.++  (str.to_re "\x53") (re.++  (str.to_re "\x6c") (re.++  (str.to_re "\x65") (re.++  (str.to_re "\x69") (re.++  (str.to_re "\x70") (re.++  (str.to_re "\x6e") (re.++  (str.to_re "\x69")  (str.to_re "\x72")))))))) (re.union  (re.++  (str.to_re "\x47") (re.++  (str.to_re "\x61") (re.++  (str.to_re "\x6c") (re.++  (str.to_re "\x65") (re.++  (str.to_re "\x6f")  (str.to_re "\x6e")))))) (re.union  (re.++  (str.to_re "\x47") (re.++  (str.to_re "\x72") (re.++  (str.to_re "\x61") (re.++  (str.to_re "\x6e") (re.++  (str.to_re "\x50") (re.++  (str.to_re "\x61") (re.++  (str.to_re "\x72") (re.++  (str.to_re "\x61") (re.++  (str.to_re "\x64") (re.++  (str.to_re "\x69") (re.++  (str.to_re "\x73")  (str.to_re "\x6f")))))))))))) (re.union  (re.++  (str.to_re "\x69") (re.++  (str.to_re "\x43") (re.++  (str.to_re "\x61")  (str.to_re "\x62")))) (re.union  (re.++  (str.to_re "\x4e") (re.++  (str.to_re "\x65") (re.++  (str.to_re "\x74") (re.++  (str.to_re "\x4e") (re.++  (str.to_re "\x65") (re.++  (str.to_re "\x77") (re.++  (str.to_re "\x73") (re.++  (str.to_re "\x57") (re.++  (str.to_re "\x69") (re.++  (str.to_re "\x72")  (str.to_re "\x65"))))))))))) (re.union  (re.++  (str.to_re "\x53") (re.++  (str.to_re "\x70") (re.++  (str.to_re "\x61") (re.++  (str.to_re "\x63") (re.++  (str.to_re "\x65") (re.++  (str.to_re "\x20") (re.++  (str.to_re "\x42") (re.++  (str.to_re "\x69") (re.++  (str.to_re "\x73") (re.++  (str.to_re "\x6f")  (str.to_re "\x6e"))))))))))) (re.union  (re.++  (str.to_re "\x53") (re.++  (str.to_re "\x74") (re.++  (str.to_re "\x61") (re.++  (str.to_re "\x69") (re.++  (str.to_re "\x6e") (re.++  (str.to_re "\x6c") (re.++  (str.to_re "\x65") (re.++  (str.to_re "\x73")  (str.to_re "\x73"))))))))) (re.union  (re.++  (str.to_re "\x4f") (re.++  (str.to_re "\x72") (re.++  (str.to_re "\x63")  (str.to_re "\x61")))) (re.union  (re.++  (str.to_re "\x44") (re.++  (str.to_re "\x6f") (re.++  (str.to_re "\x6c") (re.++  (str.to_re "\x66") (re.++  (str.to_re "\x69")  (str.to_re "\x6e")))))) (re.union  (re.++  (str.to_re "\x42") (re.++  (str.to_re "\x4f") (re.++  (str.to_re "\x4c")  (str.to_re "\x54")))) (re.union  (re.++  (str.to_re "\x4d") (re.++  (str.to_re "\x69") (re.++  (str.to_re "\x6e") (re.++  (str.to_re "\x69") (re.++  (str.to_re "\x6d")  (str.to_re "\x6f")))))) (re.union  (re.++  (str.to_re "\x54") (re.++  (str.to_re "\x69") (re.++  (str.to_re "\x7a") (re.++  (str.to_re "\x65") (re.++  (str.to_re "\x6e") (re.++  (str.to_re "\x20") (re.++  (str.to_re "\x42") (re.++  (str.to_re "\x72") (re.++  (str.to_re "\x6f") (re.++  (str.to_re "\x77") (re.++  (str.to_re "\x73") (re.++  (str.to_re "\x65")  (str.to_re "\x72"))))))))))))) (re.union  (re.++  (str.to_re "\x50") (re.++  (str.to_re "\x6f") (re.++  (str.to_re "\x6c") (re.++  (str.to_re "\x61") (re.++  (str.to_re "\x72") (re.++  (str.to_re "\x69")  (str.to_re "\x73"))))))) (re.union  (re.++  (str.to_re "\x41") (re.++  (str.to_re "\x62") (re.++  (str.to_re "\x72") (re.++  (str.to_re "\x6f") (re.++  (str.to_re "\x77") (re.++  (str.to_re "\x73") (re.++  (str.to_re "\x65")  (str.to_re "\x72")))))))) (re.union  (re.++  (str.to_re "\x50") (re.++  (str.to_re "\x6c") (re.++  (str.to_re "\x61") (re.++  (str.to_re "\x6e") (re.++  (str.to_re "\x65") (re.++  (str.to_re "\x74") (re.++  (str.to_re "\x77") (re.++  (str.to_re "\x65")  (str.to_re "\x62"))))))))) (re.union  (re.++  (str.to_re "\x49") (re.++  (str.to_re "\x43") (re.++  (str.to_re "\x45") (re.++  (str.to_re "\x20") (re.++  (str.to_re "\x42") (re.++  (str.to_re "\x72") (re.++  (str.to_re "\x6f") (re.++  (str.to_re "\x77") (re.++  (str.to_re "\x73") (re.++  (str.to_re "\x65")  (str.to_re "\x72")))))))))))  (re.++  (str.to_re "\x6d") (re.++  (str.to_re "\x44") (re.++  (str.to_re "\x6f") (re.++  (str.to_re "\x6c") (re.++  (str.to_re "\x70") (re.++  (str.to_re "\x68") (re.++  (str.to_re "\x69")  (str.to_re "\x6e"))))))))))))))))))))))))))))))))))))))))))))))))))))))))))) (re.++  (str.to_re "\x5c\x2f") (re.++ (re.+ (re.range "0" "9") )  (str.to_re "\x5c\x2e")))) (re.+ (re.range "0" "9") ))
))
(assert (= infix 
         (re.++  (re.++ (re.+ (re.range "0" "9") ) (re.+ (re.range "0" "9") )) (re.++  (str.to_re "\x26") (re.++  (re.++ (re.+ (re.range "0" "9") ) (re.++ (re.opt  (str.to_re "\x5c\x2e") ) (re.+ (re.range "0" "9") ))) (re.++  (str.to_re "\x26") (re.+ re.allchar )))))
))
(assert (= postfix 
         (re.inter  (re.++  (str.to_re "\x30") (re.++  (str.to_re "\x30") (re.*  (re.union (re.union (str.to_re "\t") (str.to_re "\n") (str.to_re "\r") (str.to_re " ")) (re.inter re.allchar (re.comp (re.union (str.to_re "\t") (str.to_re "\n") (str.to_re "\r") (str.to_re " "))))) ))) (re.comp (re.+ (re.range "0" "9") )))
))
(assert (str.in_re postfixs postfix))
(assert (>= (str.len postfixs) 1))
(assert (= result (str.++ attack postfixs)))
(check-sat)
(get-model)